8590
8627
8604
8605
8511
8685
8647
8704
8617
8725
8653
8598
8734
8750
8699
8465
8540
8739
8717
8630
8666
8763
8604
8733
8594
8626
8736
8471
8671
8676
8439
8391
8501
8495
8675
8673
8715
8699
8552
8459
8611
8588
8589
8341
8701
8660
8671
8589
8509
8562
8506
8759
8652
8603
8511
8802
8769
8542
8541
8694
8694
8781
8676
8474
8711
8716
8469
8579
8760
8581
8636
8618
8686
8557
8641
8471
8683
8640
8715
8591
8698
8636
8480
8734
8521
8553
8709
8461
8459
8736
8666
8693
8574
8615
8604
8696
8682
8640
8585
8496
